Problem:    
Rows:       248
Columns:    89 (72 integer, 72 binary)
Non-zeros:  820
Status:     INTEGER OPTIMAL
Objective:  value = 55.657278 (MINimum)

   No.   Row name        Activity     Lower bound   Upper bound
------ ------------    ------------- ------------- -------------
     1 r.5                   55.6573             0               
     2 r.6                  -1903.91      -1990.37               
     3 r.7                   2055.66             0               
     4 r.8                  -1966.99      -1988.02               
     5 r.9                   2055.66             0               
     6 r.10                 -1988.29      -1989.79               
     7 r.11                  55.6573             0               
     8 r.12                 -1939.18      -1988.01               
     9 r.13                  2055.66             0               
    10 r.14                 -1960.17      -1983.86               
    11 r.15                  55.6573             0               
    12 r.16                  14.4449      -1983.27               
    13 r.17                  2055.66             0               
    14 r.18                 -1976.31      -1991.01               
    15 r.19                  55.6573             0               
    16 r.20                  11.4449      -1987.99               
    17 r.21                  55.6573             0               
    18 r.22                   1.4915      -1991.93               
    19 r.23                  2055.66             0               
    20 r.24                 -1978.97      -1990.41               
    21 r.25                  55.6573             0               
    22 r.26                 -1935.26      -1978.09               
    23 r.27                  2055.66             0               
    24 r.28                 -1954.17      -1990.18               
    25 r.29                  55.6573             0               
    26 r.30                 -1913.54      -1978.28               
    27 r.31                  2055.66             0               
    28 r.32                 -1944.34      -1990.17               
    29 r.33                  2055.66             0               
    30 r.34                 -1998.51      -1998.51               
    31 r.35                  55.6573             0               
    32 r.36                   1.4915      -1996.61               
    33 r.37                        1             1             = 
    34 r.38                        1             1             = 
    35 r.39                        1             1             = 
    36 r.40                        1             1             = 
    37 r.41                        1             1             = 
    38 r.42                        1             1             = 
    39 r.43                        1             1             = 
    40 r.44                        1             1             = 
    41 r.45                  1915.62       10.2147               
    42 r.46                 -1918.62      -1990.37               
    43 r.47                   27.814       11.9909               
    44 r.48                  -24.814      -1988.02               
    45 r.49                  1943.74       16.1387               
    46 r.50                 -1946.74      -1990.37               
    47 r.51                  1981.44       16.7303               
    48 r.52                 -1978.44      -1988.02               
    49 r.53                  1927.61       8.98681               
    50 r.54                 -1927.61      -1990.37               
    51 r.55                  1978.44       12.0124               
    52 r.56                 -1978.44      -1988.02               
    53 r.57                   1905.4       8.07457               
    54 r.58                  -1905.4      -1990.37               
    55 r.59                  1988.02         9.585               
    56 r.60                 -1988.02      -1988.02               
    57 r.61                 -31.3438      -1975.09               
    58 r.62                 -50.2558      -1987.18               
    59 r.63                 -1968.26      -1975.09               
    60 r.64                 -1987.18      -1987.18               
    61 r.65                  1990.37       21.7171               
    62 r.66                 -1990.37      -1990.37               
    63 r.67                  22.6487        9.8256               
    64 r.68                 -22.6487      -1988.02               
    65 r.69                  -1905.4      -1987.37               
    66 r.70                 -1968.48      -1985.02               
    67 r.71                  -1905.4      -1987.37               
    68 r.72                 -1968.48      -1985.02               
    69 r.73                  81.3813        9.6267               
    70 r.74                 -81.3813      -1989.79               
    71 r.75                  1975.19       11.9787               
    72 r.76                 -1975.19      -1988.01               
    73 r.77                  25.1255       16.1387               
    74 r.78                 -28.1255      -1989.79               
    75 r.79                  1956.62       16.7303               
    76 r.80                 -1953.62      -1988.01               
    77 r.81                  8.98681       8.98681               
    78 r.82                 -8.98681      -1989.79               
    79 r.83                  1953.62       12.0124               
    80 r.84                 -1953.62      -1988.01               
    81 r.85                  1986.79       8.07457               
    82 r.86                 -1986.79      -1989.79               
    83 r.87                  1963.21         9.585               
    84 r.88                 -1963.21      -1988.01               
    85 r.89                  50.0375        21.912               
    86 r.90                 -50.0375      -1989.79               
    87 r.91                  1988.01        9.8231               
    88 r.92                 -1988.01      -1988.01               
    89 r.93                 -1928.25      -1975.28               
    90 r.94                 -1959.05      -1987.17               
    91 r.95                  28.6382      -1975.28               
    92 r.96                  -2.1653      -1987.17               
    93 r.97                 -1986.79      -1986.79               
    94 r.98                 -1943.67      -1985.01               
    95 r.99                 -1986.79      -1986.79               
    96 r.100                -1943.67      -1985.01               
    97 r.101                 53.2558        9.6267               
    98 r.102                -53.2558      -1983.86               
    99 r.103                 21.5637       11.9787               
   100 r.104                -21.5637      -1983.27               
   101 r.105                 1968.87       10.2147               
   102 r.106                -1971.87      -1983.86               
   103 r.107                 49.3777       11.9909               
   104 r.108                -46.3777      -1983.27               
   105 r.109                -1980.86      -1980.86               
   106 r.110                -12.2481      -1980.27               
   107 r.111                -1968.61      -1980.86               
   108 r.112                       0      -1980.27               
   109 r.113                 1958.66       8.07457               
   110 r.114                -1958.66      -1983.86               
   111 r.115                   9.585         9.585               
   112 r.116                  -9.585      -1983.27               
   113 r.117                  21.912        21.912               
   114 r.118                 -21.912      -1983.86               
   115 r.119                 34.3868        9.8231               
   116 r.120                -34.3868      -1983.27               
   117 r.121                -1956.37      -1975.28               
   118 r.122                -1987.17      -1987.17               
   119 r.123                -1924.98      -1975.28               
   120 r.124                -1955.79      -1987.17               
   121 r.125                -1958.66      -1980.86               
   122 r.126                 9.95338      -1980.27               
   123 r.127                -1958.66      -1980.86               
   124 r.128                 9.95338      -1980.27               
   125 r.129                 72.3945        9.6267               
   126 r.130                -72.3945      -1991.01               
   127 r.131                 21.5637       11.9787               
   128 r.132                -21.5637      -1987.99               
   129 r.133                 1988.01       10.2147               
   130 r.134                -1991.01      -1991.01               
   131 r.135                 49.3777       11.9909               
   132 r.136                -46.3777      -1987.99               
   133 r.137                -1980.86      -1980.86               
   134 r.138                -12.2481      -1980.27               
   135 r.139                -1968.61      -1980.86               
   136 r.140                       0      -1980.27               
   137 r.141                  1977.8       8.07457               
   138 r.142                 -1977.8      -1991.01               
   139 r.143                   9.585         9.585               
   140 r.144                  -9.585      -1987.99               
   141 r.145                 41.0507        21.912               
   142 r.146                -41.0507      -1991.01               
   143 r.147                 34.3868        9.8231               
   144 r.148                -34.3868      -1987.99               
   145 r.149                -1937.23      -1975.28               
   146 r.150                -1968.04      -1987.17               
   147 r.151                -1924.98      -1975.28               
   148 r.152                -1955.79      -1987.17               
   149 r.153                 -1977.8      -1985.01               
   150 r.154                 9.95338      -1981.99               
   151 r.155                 -1977.8      -1985.01               
   152 r.156                 9.95338      -1981.99               
   153 r.157                  94.596        9.6267               
   154 r.158                 -94.596      -1991.93               
   155 r.159                 11.9787       11.9787               
   156 r.160                -11.9787      -1990.41               
   157 r.161                 10.2147       10.2147               
   158 r.162                -13.2147      -1991.93               
   159 r.163                 39.7927       11.9909               
   160 r.164                -36.7927      -1990.41               
   161 r.165                 38.3402       16.1387               
   162 r.166                -41.3402      -1991.93               
   163 r.167                 1993.41       16.7303               
   164 r.168                -1990.41      -1990.41               
   165 r.169                 22.2015       8.98681               
   166 r.170                -22.2015      -1991.93               
   167 r.171                 1990.41       12.0124               
   168 r.172                -1990.41      -1990.41               
   169 r.173                -1936.75      -1975.09               
   170 r.174                -1955.66      -1987.18               
   171 r.175                -1956.29      -1975.09               
   172 r.176                 -1975.2      -1987.18               
   173 r.177                -1915.03      -1975.28               
   174 r.178                -1945.83      -1987.17               
   175 r.179                -1934.57      -1975.28               
   176 r.180                -1965.37      -1987.17               
   177 r.181                       0      -1985.93               
   178 r.182                -1980.46      -1984.41               
   179 r.183                       0      -1985.93               
   180 r.184                -1980.46      -1984.41               
   181 r.185                -31.3438      -1975.09               
   182 r.186                -50.2558      -1987.18               
   183 r.187                -1968.26      -1975.09               
   184 r.188                -1987.18      -1987.18               
   185 r.189                 1946.96       10.2147               
   186 r.190                -1949.96      -1978.09               
   187 r.191                 14.9909       11.9909               
   188 r.192                -11.9909      -1990.18               
   189 r.193                 1975.09       16.1387               
   190 r.194                -1978.09      -1978.09               
   191 r.195                 1968.61       16.7303               
   192 r.196                -1965.61      -1990.18               
   193 r.197                 1958.95       8.98681               
   194 r.198                -1958.95      -1978.09               
   195 r.199                 1965.61       12.0124               
   196 r.200                -1965.61      -1990.18               
   197 r.201                -1936.75      -1975.09               
   198 r.202                -1955.66      -1987.18               
   199 r.203                -1956.29      -1975.09               
   200 r.204                 -1975.2      -1987.18               
   201 r.205                 21.7171       21.7171               
   202 r.206                -21.7171      -1978.09               
   203 r.207                  9.8256        9.8256               
   204 r.208                 -9.8256      -1990.18               
   205 r.209                  9.6267        9.6267               
   206 r.210                 -9.6267      -1978.28               
   207 r.211                 1977.35       11.9787               
   208 r.212                -1977.35      -1990.17               
   209 r.213                -1928.25      -1975.28               
   210 r.214                -1959.05      -1987.17               
   211 r.215                 28.6382      -1975.28               
   212 r.216                 -2.1653      -1987.17               
   213 r.217                -1956.37      -1975.28               
   214 r.218                -1987.17      -1987.17               
   215 r.219                -1924.98      -1975.28               
   216 r.220                -1955.79      -1987.17               
   217 r.221                -1937.23      -1975.28               
   218 r.222                -1968.04      -1987.17               
   219 r.223                -1924.98      -1975.28               
   220 r.224                -1955.79      -1987.17               
   221 r.225                -1915.03      -1975.28               
   222 r.226                -1945.83      -1987.17               
   223 r.227                -1934.57      -1975.28               
   224 r.228                -1965.37      -1987.17               
   225 r.229                 1978.28        21.912               
   226 r.230                -1978.28      -1978.28               
   227 r.231                 1990.17        9.8231               
   228 r.232                -1990.17      -1990.17               
   229 r.233                 -1905.4      -1987.37               
   230 r.234                -1968.48      -1985.02               
   231 r.235                 -1905.4      -1987.37               
   232 r.236                -1968.48      -1985.02               
   233 r.237                -1986.79      -1986.79               
   234 r.238                -1943.67      -1985.01               
   235 r.239                -1986.79      -1986.79               
   236 r.240                -1943.67      -1985.01               
   237 r.241                -1958.66      -1980.86               
   238 r.242                 9.95338      -1980.27               
   239 r.243                -1958.66      -1980.86               
   240 r.244                 9.95338      -1980.27               
   241 r.245                 -1977.8      -1985.01               
   242 r.246                 9.95338      -1981.99               
   243 r.247                 -1977.8      -1985.01               
   244 r.248                 9.95338      -1981.99               
   245 r.249                       0      -1985.93               
   246 r.250                -1980.46      -1984.41               
   247 r.251                       0      -1985.93               
   248 r.252                -1980.46      -1984.41               

   No. Column name       Activity     Lower bound   Upper bound
------ ------------    ------------- ------------- -------------
     1 tt                    55.6573             0               
     2 s_1_1        *              0             0             1 
     3 t_1_1                 1959.57             0               
     4 s_1_6        *              0             0             1 
     5 s_2_1        *              1             0             1 
     6 t_2_1                 22.6487             0               
     7 s_2_6        *              1             0             1 
     8 s_1_2        *              1             0             1 
     9 t_1_2                 40.9511             0               
    10 s_1_7        *              0             0             1 
    11 s_2_2        *              0             0             1 
    12 t_2_2                 1997.83             0               
    13 s_2_7        *              1             0             1 
    14 s_1_3        *              1             0             1 
    15 t_1_3                 12.8256             0               
    16 s_2_3        *              0             0             1 
    17 t_2_3                 44.2124             0               
    18 s_1_4        *              1             0             1 
    19 t_1_4                 31.9643             0               
    20 s_2_4        *              0             0             1 
    21 t_2_4                 44.2124             0               
    22 s_1_5        *              0             0             1 
    23 t_1_5                 54.1658             0               
    24 s_2_5        *              1             0             1 
    25 t_2_5                 34.6274             0               
    26 t_1_6                 1990.91             0               
    27 t_2_6                  9.8256             0               
    28 t_1_7                  1969.2             0               
    29 t_2_7                       0             0               
    30 s_1_8        *              1             0             1 
    31 t_1_8                 54.1658             0               
    32 s_2_8        *              0             0             1 
    33 t_2_8                 54.1658             0               
    34 u_1_1_2      *              0             0             1 
    35 u_2_1_2      *              1             0             1 
    36 u_1_1_3      *              0             0             1 
    37 u_2_1_3      *              1             0             1 
    38 u_1_1_4      *              0             0             1 
    39 u_2_1_4      *              1             0             1 
    40 u_1_1_5      *              0             0             1 
    41 u_2_1_5      *              1             0             1 
    42 u_1_1_7      *              1             0             1 
    43 u_2_1_7      *              0             0             1 
    44 u_1_2_1      *              1             0             1 
    45 u_2_2_1      *              0             0             1 
    46 u_1_2_3      *              0             0             1 
    47 u_2_2_3      *              0             0             1 
    48 u_1_2_4      *              0             0             1 
    49 u_2_2_4      *              0             0             1 
    50 u_1_2_5      *              1             0             1 
    51 u_2_2_5      *              0             0             1 
    52 u_1_2_6      *              1             0             1 
    53 u_2_2_6      *              0             0             1 
    54 u_1_3_1      *              1             0             1 
    55 u_2_3_1      *              0             0             1 
    56 u_1_3_2      *              1             0             1 
    57 u_2_3_2      *              1             0             1 
    58 u_1_3_5      *              1             0             1 
    59 u_2_3_5      *              0             0             1 
    60 u_1_3_6      *              1             0             1 
    61 u_2_3_6      *              0             0             1 
    62 u_1_4_1      *              1             0             1 
    63 u_2_4_1      *              0             0             1 
    64 u_1_4_2      *              1             0             1 
    65 u_2_4_2      *              1             0             1 
    66 u_1_4_5      *              1             0             1 
    67 u_2_4_5      *              0             0             1 
    68 u_1_4_6      *              1             0             1 
    69 u_2_4_6      *              0             0             1 
    70 u_1_5_1      *              1             0             1 
    71 u_2_5_1      *              0             0             1 
    72 u_1_5_2      *              0             0             1 
    73 u_2_5_2      *              1             0             1 
    74 u_1_5_3      *              0             0             1 
    75 u_2_5_3      *              1             0             1 
    76 u_1_5_4      *              0             0             1 
    77 u_2_5_4      *              1             0             1 
    78 u_1_6_2      *              0             0             1 
    79 u_2_6_2      *              1             0             1 
    80 u_1_6_3      *              0             0             1 
    81 u_2_6_3      *              1             0             1 
    82 u_1_6_4      *              0             0             1 
    83 u_2_6_4      *              1             0             1 
    84 u_1_6_7      *              0             0             1 
    85 u_2_6_7      *              0             0             1 
    86 u_1_7_1      *              0             0             1 
    87 u_2_7_1      *              1             0             1 
    88 u_1_7_6      *              1             0             1 
    89 u_2_7_6      *              1             0             1 

Integer feasibility conditions:

KKT.PE: max.abs.err = 4.55e-13 on row 153
        max.rel.err = 1.11e-16 on row 153
        High quality

KKT.PB: max.abs.err = 1.05e-13 on row 203
        max.rel.err = 9.68e-15 on row 203
        High quality

End of output
